nNurses = 79;
nHours = 29;
minHours = 3;
maxHours = 18;
maxConsec = 9;
maxPresence = 14;
demand = [14, 11, 15, 10, 13, 14, 10, 10, 6, 10, 12, 16, 20, 15, 10, 9, 12, 12, 16, 12, 11, 6, 6, 11, 13, 17, 21, 26, 24];
